param n := 5;
param m := 3;
param : b :=
1 30
2 10
3 50
4 20
5 30
6 20
;
param : f :=
1 25
2 50
3 45
4 15
5 25
;
param : product_weight :=
1 20
2 60
3 40
;
param : c :=
1 1 3
1 2 7
1 3 4
2 1 2
2 2 6
2 3 8
3 1 9
3 2 3
3 3 4
4 1 5
4 2 6
4 3 4
5 1 7
5 2 3
5 3 9
;